(set-logic UFDT)
(declare-datatypes ((nat 0)) (((zero) (s (s0 nat)))))
(declare-fun add (nat nat) nat)
(injective add (true true))
(declare-fun leq (nat nat) Bool)
(assert (forall ((y nat)) (= (add zero y) y)))
(assert (forall ((x nat) (y nat)) (= (add (s x) y) (s (add x y)))))
(assert (forall ((y nat)) (leq zero y)))
(assert (forall ((x nat)) (not (leq (s x) zero))))
(assert (forall ((x nat) (y nat)) (= (leq (s x) (s y)) (leq x y))))
(assert (not (forall ((v0 nat) (v1 nat) (v2 nat) (v3 nat) (v4 nat) (v5 nat) (v6 nat) (v7 nat) (v8 nat)) (= (add (s v4) (s (add (s (add (s (s v6)) (s v3))) (add (s (add (add (s v0) (add (s v1) v4)) v8)) (add (s (s (add (s v7) (s v2)))) (s v5)))))) (add (s (add (s (add (s (add (add (s (s (s v8))) (s v4)) (s (s (s (s v0)))))) (s (add (add v3 (add v4 v1)) (s (s v2)))))) v5)) (add v6 v7))))))
(check-sat)
